data;

param num_top:=5;

#nodes and edges of the physical network
param n := 10;

set E := (1,2) (1,3) (1,7) (2,4) (2,7) (3,5) (4,8) (5,6) (5,7) (6,7) (6,9) (7,8) (7,9) (8,10) (9,10) (1,3) (5,7) ;

#nodes and edges of the virtual networks
set Nl[1] := 9 1 10 6 2 ;
set Nl[2] := 8 10 1 4 2 ;
set Nl[3] := 4 5 3 2 9 ;
set Nl[4] := 8 5 9 3 6 ;
set Nl[5] := 6 2 8 4 9 ;

set El[1] := (1,9) (1,10) (6,10) (2,6) (2,9) (2,10) (6,9) (1,2) (9,10) (1,6) ;
set El[2] := (8,10) (1,10) (1,4) (2,4) (2,8) (2,10) (1,8) (4,10) (1,2) (4,8) ;
set El[3] := (4,5) (3,5) (2,3) (2,9) (4,9) (3,9) (5,9) (2,4) (3,4) (2,5) ;
set El[4] := (5,8) (5,9) (3,9) (3,6) (6,8) (3,5) (5,6) (8,9) (6,9) (3,8) ;
set El[5] := (2,6) (2,8) (4,8) (4,9) (6,9) (4,6) (2,4) (6,8) (2,9) (8,9) ;
